Run number:0  ro:0.1  alpha:0.1 = 7312
Results:0    7690  7514  7514  7514  7514  7514  7514  7514  7514  7514  7514  7514  7514  7514  7514  7514  7514  7514  7514  7514  7426  7426  7426  7426  7426  7426  7426  7426  7426  7426  7426  7426  7426  7426  7426  7426  7426  7426  7426  7426  7426  7426  7426  7426  7426  7426  7426  7426  7426  7426  7426  7426  7426  7426  7426  7426  7426  7426  7426  7426  7426  7426  7426  7426  7426  7426  7426  7426  7426  7426  7426  7426  7426  7426  7426  7426  7426  7426  7426  7426  7426  7426  7426  7426  7426  7426  7426  7426  7426  7426  7426  7426  7426  7426  7426  7426  7426  7426  7426  7426  7426  7426  7426  7426  7426  7426  7426  7426  7426  7426  7426  7426  7426  7426  7426  7426  7426  7426  7426  7426  7426  7426  7426  7426  7426  7426  7426  7426  7426  7426  7426  7426  7426  7426  7426  7426  7426  7426  7426  7426  7426  7426  7426  7426  7426  7426  7426  7426  7426  7426  7426  7426  7426  7426  7426  7426  7426  7426  7426  7426  7426  7426  7426  7426  7426  7426  7426  7426  7426  7426  7426  7426  7426  7426  7426  7426  7426  7426  7426  7426  7426  7426  7426  7426  7426  7426  7426  7426  7426  7426  7426  7426  7426  7426  7426  7426  7426  7426  7426  7426  7426  7426  7426  7426  7426  7426  7426  7426  7426  7426  7426  7426  7426  7426  7426  7426  7426  7426  7426  7426  7426  7426  7426  7426  7426  7426  7426  7426  7426  7426  7426  7426  7426  7426  7426  7426  7426  7426  7426  7426  7426  7426  7426  7426  7426  7426  7426  7426  7426  7426  7426  7426  7426  7426  7426  7426  7426  7426  7426  7426  7426  7426  7426  7426  7426  7426  7426  7426  7426  7426  7426  7426  7426  7426  7426  7426  7426  7426  7426  7426  7426  7426  7426  7426  7426  7426  7426  7426  7426  7426  7426  7426  7426  7426  7426  7426  7426  7426  7426  7426  7426  7426  7426  7426  7426  7426  7426  7426  7426  7426  7426  7426  7426  7426  7426  7426  7426  7426  7426  7426  7426  7426  7426  7426  7426  7426  7426  7426  7426  7426  7426  7426  7426  7426  7426  7426  7426  7426  7426  7426  7426  7426  7426  7426  7426  7426  7426  7426  7426  7426  7416  7416  7368  7368  7368  7368  7368  7368  7368  7368  7368  7368  7368  7368  7368  7368  7368  7368  7368  7368  7368  7368  7368  7368  7368  7368  7368  7368  7368  7368  7368  7368  7368  7368  7368  7368  7368  7368  7368  7368  7368  7368  7368  7368  7368  7368  7368  7368  7368  7368  7368  7368  7368  7368  7368  7368  7368  7368  7368  7368  7368  7368  7368  7368  7368  7368  7368  7368  7368  7368  7368  7368  7368  7368  7368  7368  7368  7368  7368  7368  7368  7368  7368  7368  7368  7368  7368  7368  7368  7368  7368  7368  7368  7368  7312  7312  7312  7312  7312  7312  7312  7312  7312  7312  7312  7312  7312  7312  7312  7312  7312  7312  7312  7312  7312  7312  7312  7312  7312  7312  7312  7312  7312  7312  7312  7312  7312  7312  7312  7312  7312  7312  7312  7312  7312  7312  7312  7312  7312  7312  7312  7312  7312  7312  7312  7312  7312  7312  7312  7312  7312  7312  7312  7312  7312  7312  7312  7312  7312  7312  7312  7312  7312  7312  7312  7312  7312  7312  7312  7312  7312  7312  7312  7312  7312  7312  7312  7312  7312  7312  7312  7312  7312  7312  7312  7312  7312  7312  7312  7312  7312  7312  7312  7312  7312  7312  7312  7312  7312  7312  7312  7312  7312  7312  7312  7312  7312  7312  7312  7312  7312  7312  7312  7312  7312  7312  7312  7312  7312  7312  7312  7312  7312  7312  7312  7312  7312  7312  7312  7312  7312  7312  7312  7312  7312  7312  7312  7312  7312  7312  7312  7312  7312  7312  7312  7312  7312  7312  7312  7312  7312  7312  7312  7312  7312  7312  7312  7312  7312  7312  7312  7312  7312  7312  7312  7312  7312  7312  7312  7312  7312  7312  7312  7312  7312  7312  7312  7312  7312  7312  7312  7312  7312  7312  7312  7312  7312  7312  7312  7312  7312  7312  7312  7312  7312  7312  7312  7312  7312  7312  7312  7312  7312  7312  7312  7312  7312  7312  7312  7312  7312  7312  7312  7312  7312  7312  7312  7312  7312  7312  7312  7312  7312  7312  7312  7312  7312  7312  7312  7312  7312  7312  7312  7312  7312  7312  7312  7312  7312  7312  7312  7312  7312  7312  7312  7312  7312  7312  7312  7312  7312  7312  7312  7312  7312  7312  7312  7312  7312  7312  7312  7312  7312  7312  7312  7312  7312  7312  7312  7312  7312  7312  7312  7312  7312  7312  7312  7312  7312  7312  7312  7312  7312  7312  7312  7312  7312  7312  7312  7312  7312  7312  7312  7312  7312  7312  7312  7312  7312  7312  7312  7312  7312  7312  7312  7312  7312  7312  7312  7312  7312  7312  7312  7312  7312  7312  7312  7312  7312  7312  7312  7312  7312  7312  7312  7312  7312  7312  7312  7312  7312  7312  7312  7312  7312  7312  7312  7312  7312  7312  7312  7312  7312  7312  7312  7312  7312  7312  7312  7312  7312  7312  7312  7312  7312  7312  7312  7312  7312  7312  7312  7312  7312  7312  7312  7312  7312  7312  7312  7312  7312  7312  7312  7312  7312  7312  7312  7312  7312  7312  7312  7312  7312  7312  7312  7312  7312  7312  7312  7312  7312  7312  7312  7312  7312  7312  7312  7312  7312  7312  7312  7312  7312  7312  7312  7312  7312  7312  7312  7312  7312  7312  7312  7312  7312  7312  7312  7312  7312  7312  7312  7312  7312  7312  7312  7312  7312  7312  7312  7312  7312  7312  7312  7312  7312  7312  7312  7312  7312  7312  7312  7312  7312  7312  7312  7312  7312  7312  7312  7312  7312  7312  7312  7312  7312  7312  7312  7312  7312  7312  7312  7312  7312  7312  7312  7312  7312  7312  7312  7312  7312  7312  7312  7312  7312  7312  7312  7312  7312  7312  7312  7312  7312  7312  7312  7312  7312  7312  7312  7312  7312  7312  7312  7312  7312  7312  7312  7312  7312  7312  7312  7312  7312  7312  7312  7312  7312  7312  7312  7312  7312  7312  7312  7312  7312  7312  7312  7312  7312  7312  7312  7312  7312  7312  7312  7312  7312  7312  7312  7312  7312  7312  7312  7312  7312  7312  7312  7312  7312  7312  7312  7312  7312  7312  7312  7312  7312  7312  7312  7312
